



7 7
2 2 6 12 5 16 1 14 0 1 4 11 3 9
0 8 5 7 1 16 6 9 2 1 3 19 4 2
3 15 2 11 1 18 0 4 4 2 6 4 5 11
2 17 1 8 5 11 3 8 0 10 6 16 4 10
3 4 0 11 1 3 5 7 2 8 6 10 4 12
6 1 3 6 0 1 4 6 1 8 5 6 2 10
3 11 4 19 6 5 0 3 5 17 2 4 1 13
